c nombre: 15
c densidad: 0.3
p edges 50 356
e 1 8
e 1 9
e 1 10
e 1 12
e 1 13
e 1 19
e 1 20
e 1 28
e 1 29
e 1 31
e 1 32
e 1 33
e 1 36
e 1 38
e 1 39
e 1 46
e 1 48
e 1 50
e 2 6
e 2 15
e 2 22
e 2 24
e 2 25
e 2 38
e 2 39
e 2 40
e 2 41
e 2 43
e 2 48
e 3 9
e 3 11
e 3 16
e 3 18
e 3 20
e 3 22
e 3 25
e 3 26
e 3 27
e 3 28
e 3 33
e 3 41
e 3 46
e 3 49
e 4 5
e 4 10
e 4 19
e 4 20
e 4 31
e 4 37
e 4 39
e 4 44
e 5 12
e 5 20
e 5 22
e 5 23
e 5 27
e 5 29
e 5 30
e 5 35
e 5 38
e 5 41
e 5 45
e 5 47
e 5 49
e 6 11
e 6 12
e 6 13
e 6 19
e 6 21
e 6 27
e 6 30
e 6 37
e 6 41
e 6 43
e 6 45
e 6 50
e 7 8
e 7 13
e 7 15
e 7 18
e 7 19
e 7 23
e 7 32
e 7 35
e 7 37
e 7 38
e 7 45
e 8 9
e 8 10
e 8 12
e 8 17
e 8 19
e 8 20
e 8 24
e 8 27
e 8 28
e 8 31
e 8 35
e 8 37
e 8 40
e 8 47
e 8 49
e 8 50
e 9 11
e 9 12
e 9 14
e 9 17
e 9 21
e 9 33
e 9 35
e 9 41
e 9 43
e 9 47
e 10 15
e 10 21
e 10 22
e 10 23
e 10 27
e 10 32
e 10 35
e 10 36
e 10 37
e 10 38
e 10 39
e 10 41
e 10 42
e 10 49
e 11 23
e 11 24
e 11 27
e 11 28
e 11 31
e 11 34
e 11 36
e 11 38
e 12 15
e 12 18
e 12 22
e 12 29
e 12 34
e 12 38
e 12 45
e 12 47
e 13 15
e 13 17
e 13 20
e 13 22
e 13 23
e 13 30
e 13 34
e 13 40
e 13 41
e 13 46
e 13 47
e 13 49
e 14 32
e 14 33
e 14 38
e 14 40
e 14 42
e 15 16
e 15 24
e 15 25
e 15 28
e 15 29
e 15 30
e 15 33
e 15 40
e 15 41
e 16 19
e 16 21
e 16 27
e 16 28
e 16 29
e 16 36
e 16 38
e 16 39
e 16 40
e 16 41
e 16 46
e 16 49
e 16 50
e 17 19
e 17 22
e 17 23
e 17 25
e 17 26
e 17 29
e 17 30
e 17 33
e 17 37
e 17 43
e 17 50
e 18 20
e 18 21
e 18 25
e 18 27
e 18 28
e 18 29
e 18 38
e 18 40
e 18 44
e 18 45
e 18 49
e 19 21
e 19 22
e 19 31
e 19 36
e 19 37
e 19 40
e 19 43
e 19 45
e 19 47
e 19 48
e 20 21
e 20 22
e 20 26
e 20 30
e 20 33
e 20 34
e 20 37
e 20 42
e 21 22
e 21 26
e 21 28
e 21 29
e 21 38
e 21 40
e 21 42
e 21 46
e 21 50
e 22 24
e 22 25
e 22 26
e 22 27
e 22 28
e 22 31
e 22 37
e 22 38
e 22 39
e 22 40
e 22 43
e 22 44
e 22 45
e 22 49
e 22 50
e 23 28
e 23 31
e 23 34
e 23 40
e 23 42
e 23 44
e 23 50
e 24 26
e 24 31
e 24 40
e 24 48
e 24 50
e 25 32
e 25 33
e 25 39
e 25 40
e 25 47
e 25 48
e 26 30
e 26 41
e 26 43
e 26 46
e 26 47
e 26 49
e 27 28
e 27 29
e 27 32
e 27 34
e 27 35
e 27 36
e 27 38
e 27 40
e 27 44
e 27 48
e 27 50
e 28 29
e 28 31
e 28 40
e 28 44
e 28 45
e 28 46
e 28 47
e 28 48
e 28 49
e 29 32
e 29 38
e 29 40
e 29 41
e 29 43
e 29 48
e 29 49
e 30 32
e 30 33
e 30 36
e 30 37
e 30 40
e 30 41
e 30 43
e 30 45
e 30 49
e 31 33
e 31 44
e 32 33
e 32 34
e 32 35
e 32 37
e 32 40
e 32 42
e 32 43
e 32 44
e 33 35
e 33 39
e 33 43
e 34 35
e 34 37
e 34 39
e 34 40
e 34 44
e 34 46
e 34 49
e 35 38
e 35 47
e 35 49
e 36 44
e 36 47
e 37 39
e 37 43
e 37 44
e 38 39
e 38 41
e 38 48
e 38 49
e 38 50
e 39 41
e 39 49
e 39 50
e 40 42
e 40 47
e 41 43
e 41 50
e 42 45
e 42 46
e 42 49
e 43 48
e 43 50
e 44 49
e 44 50
e 45 47
e 45 48
e 45 49
